2
1000 6
47
151 1 3
152 1 3
153 1 2
154 1 3
155 1 2
157 1 1
158 1 3
159 1 2
160 1 3
161 1 3
162 1 2
163 1 2
164 1 2
165 1 4
166 1 6
167 1 4
168 1 2
169 1 2
170 1 3
171 1 3
172 1 4
174 1 2
175 1 3
176 1 3
177 1 2
178 1 4
179 1 1
180 1 1
181 1 2
182 1 3
183 1 1
184 1 3
185 1 2
186 1 3
187 1 2
188 1 4
189 1 3
190 1 3
191 1 2
193 1 1
194 1 3
195 1 3
196 1 3
197 1 1
198 1 3
199 1 1
200 1 2
